k-path
50
Line-mode
rec
0.0 0.0 0.0
0.5 0.0 0.0

0.5 0.0 0.0
0.333333 0.333333 0.0

0.333333 0.333333 0.0
0.0 0.0 0.0
